10 45
1 2 8
1 3 21
1 4 12
1 5 5
1 6 23
1 7 0
1 8 28
1 9 27
1 10 7
2 3 11
2 4 21
2 5 22
2 6 15
2 7 29
2 8 17
2 9 13
2 10 23
3 4 0
3 5 10
3 6 15
3 7 4
3 8 9
3 9 7
3 10 5
4 5 19
4 6 12
4 7 13
4 8 28
4 9 29
4 10 15
5 6 6
5 7 15
5 8 24
5 9 18
5 10 17
6 7 1
6 8 0
6 9 21
6 10 26
7 8 2
7 9 11
7 10 18
8 9 1
8 10 8
9 10 21
